\ENCODING=ISO-8859-1
\Problem name: 

Minimize
 obj: x1 + x2 + x3 + x4 + x5 + x6 + x7 + 2 x8 + 2 x9 + 2 x10 + 2 x11 + 2 x12
      + 2 x13 + 2 x14 + 2 x15 + 2 x16 + 2 x17 + 3 x18 + 3 x19 + 3 x20 + 3 x21
      + 3 x22 + 3 x23 + 3 x24 + 3 x25 + 3 x26 + 3 x27 + 3 x28 + 3 x29 + 3 x30
      + 3 x31 + 3 x32 + 4 x33 + 4 x34 + 4 x35 + 4 x36 + 4 x37 + 4 x38 + 4 x39
      + 4 x40 + 4 x41 + 5 x42 + 5 x43 + 5 x44 + 5 x45 + 5 x46 + 5 x47 + 5 x48
      + 5 x49 + 5 x50 + 5 x51 + 5 x52 + 5 x53 + 5 x54 + 5 x55 + 5 x56 + 6 x57
      + 6 x58 + 6 x59 + 6 x60 + 6 x61 + 6 x62 + 6 x63 + 7 x64 + 7 x65 + 7 x66
      + 7 x67 + 7 x68 + 7 x69 + 7 x70 + 7 x71 + 7 x72 + 8 x73 + 8 x74 + 8 x75
      + 8 x76 + 8 x77 + 8 x78 + 8 x79 + 9 x80 + 9 x81 + 9 x82 + 9 x83 + 9 x84
      + 9 x85 + 9 x86 + 10 x87 + 10 x88 + 10 x89 + 10 x90 + 10 x91 + 10 x92
      + 10 x93 + 10 x94 + 10 x95 + 11 x96 + 11 x97 + 11 x98 + 11 x99 + 11 x100
      + 11 x101 + 11 x102 + 12 x103 + 12 x104 + 12 x105 + 12 x106 + 12 x107
      + 12 x108 + 12 x109 + 13 x110 + 13 x111 + 13 x112 + 13 x113 + 13 x114
      + 14 x115 + 14 x116 + 14 x117 + 15 x118 + 15 x119 + 15 x120 + 15 x121
      + 15 x122 + 15 x123 + 15 x124 + 15 x125 + 16 x126 + 16 x127 + 16 x128
      + 16 x129 + 16 x130 + 16 x131 + 16 x132 + 16 x133 + 16 x134 + 16 x135
      + 17 x136 + 17 x137 + 17 x138 + 17 x139 + 17 x140 + 17 x141 + 17 x142
      + 17 x143 + 17 x144 + 18 x145 + 18 x146 + 18 x147 + 18 x148 + 18 x149
      + 18 x150 + 18 x151 + 18 x152 + 19 x153 + 19 x154 + 19 x155 + 19 x156
      + 19 x157 + 20 x158 + 20 x159 + 20 x160 + 20 x161 + 20 x162 + 21 x163
      + 21 x164 + 22 x165 + 22 x166 + 22 x167 + 22 x168 + 23 x169 + 23 x170
      + 24 x171 + 24 x172 + 24 x173 + 25 x174 + 25 x175 + 25 x176 + 25 x177
      + 25 x178 + 25 x179 + 25 x180 + 27 x181 + 28 x182 + 28 x183 + 29 x184
      + 29 x185 + 30 x186 + 30 x187 + 30 x188 + 31 x189 + 31 x190 + 31 x191
      + 32 x192 + 32 x193 + 34 x194 + 35 x195 + 36 x196 + 37 x197 + 38 x198
      + 38 x199 + 38 x200 + 40 x201 + 42 x202 + 43 x203 + 44 x204 + 44 x205
      + 45 x206 + 47 x207 + 48 x208 + 56 x209 + 67 x210
Subject To
 c1:   x8 + x109 + x159 >= 1
 c2:   x39 + x51 + x75 + x100 + x112 + x127 + x155 + x158 + x186 + x197 >= 1
 c3:   x3 + x35 + x36 + x87 + x199 >= 1
 c4:   x33 + x70 + x149 + x158 + x188 >= 1
 c5:   x78 + x112 + x122 + x125 + x145 + x165 + x173 >= 1
 c6:   x46 + x60 + x97 + x112 + x117 + x208 >= 1
 c7:   x23 + x118 + x138 + x151 + x187 + x190 >= 1
 c8:   x21 + x78 + x87 + x148 >= 1
 c9:   x40 + x94 + x173 + x184 >= 1
 c10:  x21 + x74 + x75 + x103 + x141 + x196 + x210 >= 1
 c11:  x45 + x74 + x87 + x149 + x179 + x184 >= 1
 c12:  x8 + x19 + x66 + x130 >= 1
 c13:  x16 + x20 + x116 >= 1
 c14:  x8 + x16 + x76 + x79 + x82 >= 1
 c15:  x83 + x116 + x138 + x140 + x171 + x203 >= 1
 c16:  x12 + x42 + x56 >= 1
 c17:  x10 + x36 + x81 + x95 + x144 + x172 + x209 >= 1
 c18:  x25 + x57 + x69 + x99 + x163 + x174 >= 1
 c19:  x18 + x98 + x107 + x131 + x137 + x150 >= 1
 c20:  x49 + x91 + x94 + x104 + x105 + x140 + x177 >= 1
 c21:  x19 + x149 >= 1
 c22:  x1 + x15 + x122 + x126 >= 1
 c23:  x77 + x153 + x177 + x193 >= 1
 c24:  x42 + x44 + x59 + x83 + x106 + x152 + x172 + x176 >= 1
 c25:  x43 + x77 + x93 + x126 >= 1
 c26:  x64 + x150 + x176 + x197 >= 1
 c27:  x18 + x54 + x72 + x209 >= 1
 c28:  x42 + x87 + x136 + x183 + x189 >= 1
 c29:  x9 + x50 + x199 + x204 >= 1
 c30:  x46 + x125 + x147 + x154 + x198 >= 1
 c31:  x157 + x164 + x195 + x198 + x203 >= 1
 c32:  x37 + x65 + x68 + x202 >= 1
 c33:  x59 + x146 >= 1
 c34:  x35 + x79 + x110 + x154 + x185 + x190 >= 1
 c35:  x4 + x42 + x47 + x58 + x80 + x158 >= 1
 c36:  x9 + x88 + x117 + x143 >= 1
 c37:  x18 + x45 + x97 + x156 + x171 >= 1
 c38:  x34 + x53 + x101 + x114 + x155 + x196 >= 1
 c39:  x21 + x44 + x128 + x149 + x199 >= 1
 c40:  x9 + x89 + x115 + x158 + x175 >= 1
 c41:  x10 + x46 + x49 + x85 + x90 + x138 + x190 + x210 >= 1
 c42:  x49 + x110 + x113 >= 1
 c43:  x23 + x42 + x50 + x110 + x161 >= 1
 c44:  x142 + x144 + x145 + x146 + x168 + x171 + x184 + x187 + x191 + x193
       + x197 + x201 + x208 >= 1
 c45:  x5 + x71 + x90 + x178 >= 1
 c46:  x63 + x65 + x104 + x111 + x136 + x188 + x199 >= 1
 c47:  x9 + x70 + x87 + x91 + x147 + x170 + x192 >= 1
 c48:  x27 + x72 + x103 + x146 + x172 + x199 >= 1
 c49:  x27 + x44 + x82 + x89 + x127 + x203 >= 1
 c50:  x131 + x197 + x202 + x207 >= 1
 c51:  x6 + x137 + x153 + x159 + x166 >= 1
 c52:  x47 + x95 + x124 + x195 + x202 + x204 >= 1
 c53:  x45 + x79 + x107 + x183 + x190 >= 1
 c54:  x13 + x23 + x57 + x87 + x198 >= 1
 c55:  x46 + x66 + x90 + x169 + x176 + x189 >= 1
 c56:  x94 >= 1
 c57:  x117 + x162 + x205 >= 1
 c58:  x129 + x206 >= 1
 c59:  x123 + x124 + x169 + x173 >= 1
 c60:  x11 + x77 + x94 + x105 + x166 >= 1
 c61:  x107 + x180 + x188 + x200 + x203 >= 1
 c62:  x20 + x31 + x47 + x100 + x110 + x136 + x174 + x195 >= 1
 c63:  x30 + x65 + x89 + x91 + x105 + x171 + x174 >= 1
 c64:  x3 + x5 + x33 + x43 + x76 + x149 + x175 >= 1
 c65:  x62 + x123 + x165 + x176 + x204 + x206 >= 1
 c66:  x9 + x44 + x47 + x118 + x151 + x163 >= 1
 c67:  x26 + x104 + x158 >= 1
 c68:  x48 + x64 + x96 + x112 + x127 + x165 + x166 >= 1
 c69:  x1 + x20 + x34 + x123 + x127 >= 1
 c70:  x18 + x31 + x45 + x66 + x82 + x125 + x147 >= 1
 c71:  x35 + x65 + x82 + x84 + x87 + x175 + x184 + x186 >= 1
 c72:  x12 + x128 >= 1
 c73:  x19 + x154 + x162 + x182 >= 1
 c74:  x8 + x19 + x24 + x71 + x74 + x151 + x186 >= 1
 c75:  x72 + x145 + x172 + x190 >= 1
 c76:  x1 + x6 + x28 + x95 + x169 >= 1
 c77:  x17 + x42 + x120 + x184 >= 1
 c78:  x145 + x199 >= 1
 c79:  x14 + x98 + x112 + x160 >= 1
 c80:  x8 + x73 + x127 + x132 + x182 >= 1
 c81:  x146 + x205 + x206 >= 1
 c82:  x90 + x101 + x108 + x179 + x180 + x208 >= 1
 c83:  x48 + x116 + x139 + x182 >= 1
 c84:  x103 + x137 + x153 + x175 >= 1
 c85:  x131 + x143 + x156 + x194 + x196 + x208 >= 1
 c86:  x81 + x113 + x139 + x164 + x173 + x184 >= 1
 c87:  x129 + x143 + x145 + x151 + x162 + x178 + x192 + x209 >= 1
 c88:  x19 + x46 + x80 + x84 + x171 >= 1
 c89:  x57 + x78 + x83 + x93 + x117 + x151 + x186 + x193 + x197 >= 1
 c90:  x4 + x27 + x54 + x94 + x110 + x118 >= 1
 c91:  x45 + x51 + x53 + x87 + x148 + x164 + x176 >= 1
 c92:  x2 + x22 + x106 + x111 + x141 + x160 + x165 + x184 + x203 >= 1
 c93:  x28 + x82 + x87 >= 1
 c94:  x35 + x39 + x60 + x76 + x121 + x130 + x148 >= 1
 c95:  x15 + x63 >= 1
 c96:  x64 + x92 >= 1
 c97:  x92 + x159 + x167 + x188 + x192 + x202 >= 1
 c98:  x96 + x157 + x160 + x179 + x202 >= 1
 c99:  x25 + x30 + x103 + x140 + x189 >= 1
 c100: x41 + x86 + x165 + x198 + x206 >= 1
 c101: x57 + x149 + x150 >= 1
 c102: x31 + x42 + x67 + x130 + x131 + x208 >= 1
 c103: x64 + x84 + x130 + x161 >= 1
 c104: x20 + x41 + x93 + x111 + x163 + x193 >= 1
 c105: x3 + x205 >= 1
 c106: x38 + x171 >= 1
 c107: x58 + x103 + x174 + x207 >= 1
 c108: x14 + x44 + x97 + x119 + x198 + x204 >= 1
 c109: x5 + x20 + x44 + x61 + x106 + x165 + x173 >= 1
 c110: x46 + x185 >= 1
 c111: x51 + x73 + x104 + x137 + x160 + x198 + x208 >= 1
 c112: x152 + x155 + x163 + x201 >= 1
 c113: x17 + x118 + x127 + x167 + x179 >= 1
 c114: x119 + x174 + x189 + x194 + x204 >= 1
 c115: x89 + x141 + x189 >= 1
 c116: x127 + x175 + x196 >= 1
 c117: x8 + x43 + x142 + x178 >= 1
 c118: x12 + x139 + x148 + x202 >= 1
 c119: x22 + x26 + x80 + x174 + x198 >= 1
 c120: x4 + x40 + x70 + x146 + x184 + x196 >= 1
 c121: x39 + x92 + x107 + x153 >= 1
 c122: x92 + x102 + x119 + x134 + x156 + x166 + x170 + x178 + x183 + x200 >= 1
 c123: x96 + x97 + x161 >= 1
 c124: x9 + x115 + x139 + x197 + x198 >= 1
 c125: x109 + x133 + x135 + x141 + x177 >= 1
 c126: x85 + x96 + x132 + x148 + x180 + x197 >= 1
 c127: x7 + x10 + x29 + x30 + x55 + x197 + x207 >= 1
 c128: x1 + x49 + x147 >= 1
 c129: x13 + x73 + x74 + x113 + x183 + x208 >= 1
 c130: x61 + x64 + x66 + x67 + x86 + x118 + x121 + x145 + x171 >= 1
 c131: x11 + x33 + x48 + x126 >= 1
 c132: x15 + x90 + x208 >= 1
 c133: x73 + x106 + x115 + x126 + x147 + x154 + x159 + x203 + x206 >= 1
 c134: x8 + x13 + x22 + x70 + x87 + x118 + x197 >= 1
 c135: x8 + x133 + x198 >= 1
 c136: x43 + x115 + x130 + x138 + x190 >= 1
 c137: x71 + x80 + x152 + x166 + x182 + x183 >= 1
 c138: x62 + x147 + x172 >= 1
 c139: x22 + x89 + x95 + x128 + x161 + x207 >= 1
 c140: x2 + x64 + x74 + x111 + x206 >= 1
 c141: x48 + x52 + x75 + x134 + x145 >= 1
 c142: x43 + x48 + x136 + x181 >= 1
 c143: x80 >= 1
 c144: x105 + x122 + x147 + x170 + x181 >= 1
 c145: x11 + x38 + x69 + x81 + x137 + x150 >= 1
 c146: x42 + x145 >= 1
 c147: x12 + x28 + x99 + x120 + x169 + x199 >= 1
 c148: x29 + x108 + x115 + x187 + x194 >= 1
 c149: x24 + x191 >= 1
 c150: x34 + x58 + x85 >= 1
 c151: x40 + x67 + x170 + x174 + x200 >= 1
 c152: x55 + x165 + x199 + x209 >= 1
 c153: x68 + x103 + x104 + x133 + x146 + x164 + x207 >= 1
 c154: x75 + x146 + x150 >= 1
 c155: x3 + x24 + x37 + x93 >= 1
 c156: x54 + x99 + x120 + x136 >= 1
 c157: x88 + x98 + x104 + x167 + x200 + x205 >= 1
 c158: x32 + x52 + x96 + x124 + x128 >= 1
 c159: x88 + x140 + x209 >= 1
 c160: x1 + x11 + x57 + x61 + x129 + x206 >= 1
 c161: x121 + x126 + x135 + x168 + x204 + x210 >= 1
 c162: x93 + x109 + x114 + x191 + x205 >= 1
 c163: x45 + x60 + x83 + x132 + x160 + x192 + x197 + x209 >= 1
 c164: x63 + x98 + x146 + x169 + x194 >= 1
 c165: x21 + x52 + x91 + x119 >= 1
 c166: x26 + x80 + x81 + x162 + x165 >= 1
 c167: x25 + x43 + x109 + x142 + x148 >= 1
 c168: x10 + x18 + x68 + x175 + x182 + x207 >= 1
 c169: x48 + x108 + x120 >= 1
 c170: x18 + x97 + x99 + x182 >= 1
 c171: x25 + x47 + x110 + x129 + x170 >= 1
 c172: x36 + x119 + x129 >= 1
 c173: x35 + x53 + x90 >= 1
 c174: x34 + x38 + x50 + x91 + x116 + x128 + x187 >= 1
 c175: x167 + x185 + x186 + x207 + x209 + x210 >= 1
 c176: x23 + x33 + x62 + x107 + x145 + x189 + x192 >= 1
 c177: x10 + x65 + x88 + x96 + x103 >= 1
 c178: x2 + x8 + x44 + x122 + x126 + x176 >= 1
 c179: x19 + x57 + x83 + x163 + x177 + x189 >= 1
 c180: x147 + x158 + x172 + x195 + x205 >= 1
 c181: x11 + x18 + x85 + x106 >= 1
 c182: x43 + x56 + x59 + x101 + x174 >= 1
 c183: x100 + x146 + x166 + x167 + x182 >= 1
 c184: x59 + x73 + x81 >= 1
 c185: x14 + x23 + x47 + x87 + x92 + x119 + x126 >= 1
 c186: x132 + x134 + x168 + x177 + x178 + x181 >= 1
 c187: x34 + x121 + x162 + x191 >= 1
 c188: x67 + x69 + x76 + x84 + x89 + x96 >= 1
 c189: x51 + x88 + x111 >= 1
 c190: x32 + x131 >= 1
 c191: x49 + x102 + x195 + x204 >= 1
 c192: x21 + x81 + x120 >= 1
 c193: x187 + x210 >= 1
 c194: x9 + x29 + x207 + x208 >= 1
 c195: x18 + x24 + x55 + x88 + x128 + x161 + x184 + x186 >= 1
 c196: x2 + x22 + x50 + x58 + x153 + x175 + x206 >= 1
 c197: x69 + x190 + x200 >= 1
 c198: x33 + x116 + x145 >= 1
 c199: x68 + x88 + x201 >= 1
 c200: x37 + x105 + x108 + x115 + x158 + x159 >= 1
Bounds
 0 <= x1 <= 1
 0 <= x2 <= 1
 0 <= x3 <= 1
 0 <= x4 <= 1
 0 <= x5 <= 1
 0 <= x6 <= 1
 0 <= x7 <= 1
 0 <= x8 <= 1
 0 <= x9 <= 1
 0 <= x10 <= 1
 0 <= x11 <= 1
 0 <= x12 <= 1
 0 <= x13 <= 1
 0 <= x14 <= 1
 0 <= x15 <= 1
 0 <= x16 <= 1
 0 <= x17 <= 1
 0 <= x18 <= 1
 0 <= x19 <= 1
 0 <= x20 <= 1
 0 <= x21 <= 1
 0 <= x22 <= 1
 0 <= x23 <= 1
 0 <= x24 <= 1
 0 <= x25 <= 1
 0 <= x26 <= 1
 0 <= x27 <= 1
 0 <= x28 <= 1
 0 <= x29 <= 1
 0 <= x30 <= 1
 0 <= x31 <= 1
 0 <= x32 <= 1
 0 <= x33 <= 1
 0 <= x34 <= 1
 0 <= x35 <= 1
 0 <= x36 <= 1
 0 <= x37 <= 1
 0 <= x38 <= 1
 0 <= x39 <= 1
 0 <= x40 <= 1
 0 <= x41 <= 1
 0 <= x42 <= 1
 0 <= x43 <= 1
 0 <= x44 <= 1
 0 <= x45 <= 1
 0 <= x46 <= 1
 0 <= x47 <= 1
 0 <= x48 <= 1
 0 <= x49 <= 1
 0 <= x50 <= 1
 0 <= x51 <= 1
 0 <= x52 <= 1
 0 <= x53 <= 1
 0 <= x54 <= 1
 0 <= x55 <= 1
 0 <= x56 <= 1
 0 <= x57 <= 1
 0 <= x58 <= 1
 0 <= x59 <= 1
 0 <= x60 <= 1
 0 <= x61 <= 1
 0 <= x62 <= 1
 0 <= x63 <= 1
 0 <= x64 <= 1
 0 <= x65 <= 1
 0 <= x66 <= 1
 0 <= x67 <= 1
 0 <= x68 <= 1
 0 <= x69 <= 1
 0 <= x70 <= 1
 0 <= x71 <= 1
 0 <= x72 <= 1
 0 <= x73 <= 1
 0 <= x74 <= 1
 0 <= x75 <= 1
 0 <= x76 <= 1
 0 <= x77 <= 1
 0 <= x78 <= 1
 0 <= x79 <= 1
 0 <= x80 <= 1
 0 <= x81 <= 1
 0 <= x82 <= 1
 0 <= x83 <= 1
 0 <= x84 <= 1
 0 <= x85 <= 1
 0 <= x86 <= 1
 0 <= x87 <= 1
 0 <= x88 <= 1
 0 <= x89 <= 1
 0 <= x90 <= 1
 0 <= x91 <= 1
 0 <= x92 <= 1
 0 <= x93 <= 1
 0 <= x94 <= 1
 0 <= x95 <= 1
 0 <= x96 <= 1
 0 <= x97 <= 1
 0 <= x98 <= 1
 0 <= x99 <= 1
 0 <= x100 <= 1
 0 <= x101 <= 1
 0 <= x102 <= 1
 0 <= x103 <= 1
 0 <= x104 <= 1
 0 <= x105 <= 1
 0 <= x106 <= 1
 0 <= x107 <= 1
 0 <= x108 <= 1
 0 <= x109 <= 1
 0 <= x110 <= 1
 0 <= x111 <= 1
 0 <= x112 <= 1
 0 <= x113 <= 1
 0 <= x114 <= 1
 0 <= x115 <= 1
 0 <= x116 <= 1
 0 <= x117 <= 1
 0 <= x118 <= 1
 0 <= x119 <= 1
 0 <= x120 <= 1
 0 <= x121 <= 1
 0 <= x122 <= 1
 0 <= x123 <= 1
 0 <= x124 <= 1
 0 <= x125 <= 1
 0 <= x126 <= 1
 0 <= x127 <= 1
 0 <= x128 <= 1
 0 <= x129 <= 1
 0 <= x130 <= 1
 0 <= x131 <= 1
 0 <= x132 <= 1
 0 <= x133 <= 1
 0 <= x134 <= 1
 0 <= x135 <= 1
 0 <= x136 <= 1
 0 <= x137 <= 1
 0 <= x138 <= 1
 0 <= x139 <= 1
 0 <= x140 <= 1
 0 <= x141 <= 1
 0 <= x142 <= 1
 0 <= x143 <= 1
 0 <= x144 <= 1
 0 <= x145 <= 1
 0 <= x146 <= 1
 0 <= x147 <= 1
 0 <= x148 <= 1
 0 <= x149 <= 1
 0 <= x150 <= 1
 0 <= x151 <= 1
 0 <= x152 <= 1
 0 <= x153 <= 1
 0 <= x154 <= 1
 0 <= x155 <= 1
 0 <= x156 <= 1
 0 <= x157 <= 1
 0 <= x158 <= 1
 0 <= x159 <= 1
 0 <= x160 <= 1
 0 <= x161 <= 1
 0 <= x162 <= 1
 0 <= x163 <= 1
 0 <= x164 <= 1
 0 <= x165 <= 1
 0 <= x166 <= 1
 0 <= x167 <= 1
 0 <= x168 <= 1
 0 <= x169 <= 1
 0 <= x170 <= 1
 0 <= x171 <= 1
 0 <= x172 <= 1
 0 <= x173 <= 1
 0 <= x174 <= 1
 0 <= x175 <= 1
 0 <= x176 <= 1
 0 <= x177 <= 1
 0 <= x178 <= 1
 0 <= x179 <= 1
 0 <= x180 <= 1
 0 <= x181 <= 1
 0 <= x182 <= 1
 0 <= x183 <= 1
 0 <= x184 <= 1
 0 <= x185 <= 1
 0 <= x186 <= 1
 0 <= x187 <= 1
 0 <= x188 <= 1
 0 <= x189 <= 1
 0 <= x190 <= 1
 0 <= x191 <= 1
 0 <= x192 <= 1
 0 <= x193 <= 1
 0 <= x194 <= 1
 0 <= x195 <= 1
 0 <= x196 <= 1
 0 <= x197 <= 1
 0 <= x198 <= 1
 0 <= x199 <= 1
 0 <= x200 <= 1
 0 <= x201 <= 1
 0 <= x202 <= 1
 0 <= x203 <= 1
 0 <= x204 <= 1
 0 <= x205 <= 1
 0 <= x206 <= 1
 0 <= x207 <= 1
 0 <= x208 <= 1
 0 <= x209 <= 1
 0 <= x210 <= 1
Binaries
 x1  x2  x3  x4  x5  x6  x7  x8  x9  x10  x11  x12  x13  x14  x15  x16  x17 
 x18  x19  x20  x21  x22  x23  x24  x25  x26  x27  x28  x29  x30  x31  x32 
 x33  x34  x35  x36  x37  x38  x39  x40  x41  x42  x43  x44  x45  x46  x47 
 x48  x49  x50  x51  x52  x53  x54  x55  x56  x57  x58  x59  x60  x61  x62 
 x63  x64  x65  x66  x67  x68  x69  x70  x71  x72  x73  x74  x75  x76  x77 
 x78  x79  x80  x81  x82  x83  x84  x85  x86  x87  x88  x89  x90  x91  x92 
 x93  x94  x95  x96  x97  x98  x99  x100  x101  x102  x103  x104  x105  x106 
 x107  x108  x109  x110  x111  x112  x113  x114  x115  x116  x117  x118  x119 
 x120  x121  x122  x123  x124  x125  x126  x127  x128  x129  x130  x131  x132 
 x133  x134  x135  x136  x137  x138  x139  x140  x141  x142  x143  x144  x145 
 x146  x147  x148  x149  x150  x151  x152  x153  x154  x155  x156  x157  x158 
 x159  x160  x161  x162  x163  x164  x165  x166  x167  x168  x169  x170  x171 
 x172  x173  x174  x175  x176  x177  x178  x179  x180  x181  x182  x183  x184 
 x185  x186  x187  x188  x189  x190  x191  x192  x193  x194  x195  x196  x197 
 x198  x199  x200  x201  x202  x203  x204  x205  x206  x207  x208  x209  x210 
End
